Gurobi Optimizer version 9.1.2 build v9.1.2rc0 (linux64)
Thread count: 36 physical cores, 72 logical processors, using up to 32 threads
Optimize a model with 12 rows, 57 columns and 590 nonzeros
Model fingerprint: 0xf32eec78
Model has 47 quadratic constraints
Coefficient statistics:
  Matrix range     [2e-05, 3e+00]
  QMatrix range    [1e+00, 1e+00]
  QLMatrix range   [1e+00, 1e+00]
  Objective range  [8e-03, 7e-01]
  Bounds range     [1e+00, 1e+00]
  RHS range        [1e+00, 1e+00]
Presolve removed 9 rows and 0 columns

Continuous model is non-convex -- solving as a MIP.

Presolve removed 9 rows and 0 columns
Presolve time: 0.00s
Presolved: 189 rows, 57 columns, 443 nonzeros
Presolved model has 47 bilinear constraint(s)
Variable types: 57 continuous, 0 integer (0 binary)

Root relaxation: objective -1.743721e+00, 44 iterations, 0.00 seconds

    Nodes    |    Current Node    |     Objective Bounds      |     Work
 Expl Unexpl |  Obj  Depth IntInf | Incumbent    BestBd   Gap | It/Node Time

     0     0   -1.74372    0   38          -   -1.74372      -     -    0s
H    0     0                       0.6147548   -1.74372   384%     -    0s
     0     0   -1.64739    0    1    0.61475   -1.64739   368%     -    0s
H    0     0                      -1.6450460   -1.64739  0.14%     -    0s
     0     0     cutoff    0        -1.64505   -1.64505  0.00%     -    0s

Cutting planes:
  RLT: 25
  BQP: 3

Explored 1 nodes (76 simplex iterations) in 0.01 seconds
Thread count was 32 (of 72 available processors)

Solution count 2: -1.64505 0.614755 
No other solutions better than -1.64505

Optimal solution found (tolerance 1.00e-04)
Best objective -1.645045978473e+00, best bound -1.645045978473e+00, gap 0.0000%

User-callback calls 78, time in user-callback 0.00 sec
Gurobi Optimizer version 9.1.2 build v9.1.2rc0 (linux64)
Thread count: 36 physical cores, 72 logical processors, using up to 32 threads
Optimize a model with 60 rows, 312 columns and 16100 nonzeros
Model fingerprint: 0xf1d32f76
Model has 262 quadratic constraints
Coefficient statistics:
  Matrix range     [4e-07, 7e+00]
  QMatrix range    [1e+00, 1e+00]
  QLMatrix range   [1e+00, 1e+00]
  Objective range  [4e-03, 1e+00]
  Bounds range     [1e+00, 1e+00]
  RHS range        [1e+00, 1e+00]
Presolve removed 15 rows and 0 columns

Continuous model is non-convex -- solving as a MIP.

Presolve removed 15 rows and 0 columns
Presolve time: 0.01s
Presolved: 1081 rows, 312 columns, 13446 nonzeros
Presolved model has 262 bilinear constraint(s)
Variable types: 312 continuous, 0 integer (0 binary)

Root relaxation: objective -2.487437e+01, 317 iterations, 0.02 seconds

    Nodes    |    Current Node    |     Objective Bounds      |     Work
 Expl Unexpl |  Obj  Depth IntInf | Incumbent    BestBd   Gap | It/Node Time

     0     0  -24.87437    0   95          -  -24.87437      -     -    0s
     0     0  -23.66248    0   78          -  -23.66248      -     -    0s
     0     0  -23.59973    0   72          -  -23.59973      -     -    0s
     0     0  -23.56445    0   64          -  -23.56445      -     -    0s
     0     0  -23.55176    0   64          -  -23.55176      -     -    0s
     0     0  -23.55141    0   69          -  -23.55141      -     -    0s
     0     0  -23.54610    0   69          -  -23.54610      -     -    0s
     0     0  -23.54468    0   69          -  -23.54468      -     -    0s
     0     0  -23.54394    0   69          -  -23.54394      -     -    0s
     0     0  -23.54362    0   69          -  -23.54362      -     -    0s
     0     0  -23.54356    0   69          -  -23.54356      -     -    0s
     0     0  -23.54342    0   69          -  -23.54342      -     -    0s
H    0     0                     -22.1003538  -23.54342  6.53%     -    0s
H    0     0                     -22.1590864  -23.54342  6.25%     -    0s
     0     2  -23.54342    0   69  -22.15909  -23.54342  6.25%     -    0s
* 1190   927              43     -22.1590874  -22.93599  3.51%  51.7    1s
* 1290  1014              43     -22.1590915  -22.93599  3.51%  50.2    1s
* 1291  1014              43     -22.1590943  -22.93599  3.51%  50.2    1s
* 1306  1014              48     -22.1653831  -22.93599  3.48%  50.3    1s
* 1313  1014              53     -22.1773005  -22.93599  3.42%  50.1    1s
* 1693  1343              74     -22.2280115  -22.91941  3.11%  47.0    1s
* 1694  1343              74     -22.2280595  -22.91941  3.11%  47.0    1s
* 2112  1635              49     -22.3886395  -22.86724  2.14%  45.2    1s
* 2487  1703              59     -22.4082868  -22.86724  2.05%  43.5    2s
* 2568  1750              59     -22.4302012  -22.86724  1.95%  43.7    2s
* 4045  1863              47     -22.4302266  -22.76017  1.47%  42.2    2s
* 4215  1887              46     -22.4303781  -22.76017  1.47%  41.5    2s
* 4217  1887              47     -22.4303973  -22.76017  1.47%  41.4    2s
* 4218  1887              47     -22.4303974  -22.76017  1.47%  41.4    2s
* 4386  1938              58     -22.4333990  -22.76017  1.46%  40.8    2s
* 4391  1938              62     -22.4334295  -22.76017  1.46%  40.7    2s
* 5563  1153              51     -22.4344076  -22.76017  1.45%  42.4    3s
* 5565  1094              52     -22.4344243  -22.76017  1.45%  42.3    3s
* 5653  1040              50     -22.4344822  -22.76017  1.45%  42.2    3s
* 6488  1124              71     -22.4677926  -22.76017  1.30%  40.5    4s
* 6593  1064              73     -22.4678014  -22.76017  1.30%  40.3    4s
* 6594  1017              74     -22.4678150  -22.76017  1.30%  40.3    4s
* 6982   918              57     -22.4736699  -22.76017  1.27%  39.5    4s
* 6983   887              57     -22.4736729  -22.76017  1.27%  39.5    4s
* 7316   994              66     -22.4751924  -22.76017  1.27%  38.9    4s
* 7317   994              66     -22.4751973  -22.76017  1.27%  38.9    4s
* 7320   994              67     -22.4752540  -22.76017  1.27%  38.9    4s
* 7376   994              60     -22.4758531  -22.76017  1.26%  38.8    4s
* 7561  1011              59     -22.4765933  -22.76017  1.26%  38.6    4s
* 8032  1116              62     -22.4768857  -22.76017  1.26%  38.0    4s
* 8033  1116              62     -22.4768884  -22.76017  1.26%  38.0    4s
* 8202  1148              62     -22.4769371  -22.76017  1.26%  37.8    4s
* 8204  1148              63     -22.4769398  -22.76017  1.26%  37.8    4s
  8593  1219     cutoff   28       -22.47694  -22.76017  1.26%  37.6    5s
*10190  1536              73     -22.4800021  -22.76017  1.25%  36.0    5s
*10948  1621              68     -22.4884860  -22.76017  1.21%  35.1    5s
*11332  1604              65     -22.4924145  -22.76017  1.19%  34.7    5s
*11333  1604              65     -22.4926397  -22.76017  1.19%  34.7    5s
*12668  1697              56     -22.4928031  -22.72925  1.05%  33.4    5s
*14002  1781              63     -22.4931091  -22.69565  0.90%  32.0    6s
*15835  1875              74     -22.4941575  -22.63526  0.63%  30.3    6s
*15836  1875              74     -22.4942248  -22.63526  0.63%  30.3    6s
*15837  1875              73     -22.4943888  -22.63526  0.63%  30.3    6s
*16283  1769              69     -22.4947620  -22.57165  0.34%  29.9    6s
*16285  1769              70     -22.4947625  -22.57165  0.34%  29.9    6s
*18172  1735              70     -22.4949286  -22.53980  0.20%  28.6    6s
*18173  1735              70     -22.4949353  -22.53980  0.20%  28.6    6s
*18637  1785              73     -22.4950192  -22.53659  0.18%  28.2    6s
*18640  1785              73     -22.4950255  -22.53659  0.18%  28.2    6s
*18667  1785              74     -22.4952057  -22.53659  0.18%  28.2    6s
*18668  1785              74     -22.4952291  -22.53659  0.18%  28.2    6s
*18673  1785              74     -22.4952332  -22.53659  0.18%  28.2    6s
*18887  1785              70     -22.4955816  -22.53659  0.18%  28.0    6s
*18893  1785              71     -22.4956036  -22.53659  0.18%  28.0    6s
*19189  1648              81     -22.4956918  -22.53404  0.17%  27.9    7s
*19896  1682              81     -22.4956929  -22.52670  0.14%  27.4    7s
*38672  1859              78     -22.4957032  -22.49788  0.01%  18.9    9s
*38677  1859              79     -22.4957032  -22.49788  0.01%  18.8    9s

Explored 39003 nodes (732160 simplex iterations) in 9.94 seconds
Thread count was 32 (of 72 available processors)

Solution count 10: -22.4957 -22.4957 -22.4957 ... -22.495

Optimal solution found (tolerance 1.00e-04)
Best objective -2.249570002684e+01, best bound -2.249754523743e+01, gap 0.0082%

User-callback calls 78968, time in user-callback 0.03 sec



objective value: -22.49570002683739
objective bound: -22.497545237428707
x_opt: [1.0, 0.8626084556848825, 0.0, 0.2655523795030228, 0.0, 0.0, 1.0, 0.0, 0.0, 0.0, 1.0, 0.0, 1.0, 1.0, 0.36598392681431413, 1.0, 0.0, 1.0, 0.0, 0.0, 0.0, 0.33978280077498757, 0.0, 0.5546881785075212, 0.0, 0.7210594891576999, 0.0, 1.0, 0.0, 0.0, 1.0, 1.0, 0.0, 0.5661880649318066, 1.0, 0.9019431963604708, 0.0, 1.0, 0.0, 1.0, 1.0, 0.0, 0.9926931876713773, 0.08321013871483791, 0.037824242608782754, 1.0060418683644513e-13, 0.4655322541167082, 0.3908190766578578, 0.28880346810310487, 1.0073077282951549e-13]
GUROBI solution time: 9.945031881332397




